%nprocshared=8
%mem=16GB
# opt=(gdiis,addgic,maxstep=8,notrust,loose) b3lyp/6-31g(d) em=gd3bj

Title Card Required

0 1
 H                 -1.78390300   -1.30414100    1.38160800
 C                 -1.85342900   -0.80046800    0.41155000
 C                 -1.79425400    0.70312800    0.46867200
 C                 -1.27538700    1.16372700   -0.73166000
 C                 -0.57538300    0.13778500   -1.36925200
 C                 -0.64211500   -1.07061800   -0.49942100
 H                 -2.78408100   -1.13287300   -0.07389400
 C                  0.57595000    0.13630600    1.36974200
 H                 -2.33587300    1.30425100    1.19066300
 H                 -1.28417200    2.19888000   -1.05894100
 H                 -0.16065200    0.16372800   -2.36804800
 C                  0.64243200   -1.07120100    0.49852100
 H                 -0.64804500   -2.02672400   -1.02889300
 H                  0.64834600   -2.02801800    1.02672000
 H                  0.16170700    0.16115700    2.36876600
 C                  1.27538700    1.16307100    0.73284300
 C                  1.79333600    0.70384200   -0.46839700
 H                  1.28400200    2.19791200    1.06110400
 C                  1.85344900   -0.79978300   -0.41242500
 H                  2.33418000    1.30585300   -1.19023100
 H                  2.78430900   -1.13175400    0.07287200
 H                  1.78427100   -1.30301000   -1.38276600

PC1(stepsize=0.4,nsteps=10)=(0.8108)*(R(6,12)-3.8164)+(0.4138)*(R(3,8)-5.2414)+(0.4138)*(R(5,17)-5.2414)
PC2(freeze)=(-0.7071)*(R(3,8)-5.2414)+(0.7071)*(R(5,17)-5.2414)



